     Program PWSCF v.6.7MaX starts on 18Feb2021 at  9:34:24

     R & G space division:  proc/nbgrp/npool/nimage =      20
     Waiting for input...
     Reading input from standard input

     Current dimensions of program PWSCF are:
     Max number of different atomic species (ntypx) = 10
     Max number of k-points (npk) =  40000
     Max angular momentum in pseudopotentials (lmaxx) =  3
     Message from routine read_pp_mesh:
     mesh size missing, using the one in header
     Message from routine read_pp_mesh:
     mesh size missing, using the one in header

     Subspace diagonalization in iterative solution of the eigenvalue problem:
     a serial algorithm will be used

     Message from routine setup:
     no reason to have ecutrho>4*ecutwfc
     Message from routine setup:
     using ibrav=0 with symmetry is DISCOURAGED, use correct ibrav instead

     bravais-lattice index     =            0
     lattice parameter (alat)  =       8.0079  a.u.
     unit-cell volume          =    2506.4848 (a.u.)^3
     number of atoms/cell      =            4
     number of atomic types    =            2
     number of electrons       =        60.00
     number of Kohn-Sham states=           60
     kinetic-energy cutoff     =      50.0000  Ry
     charge density cutoff     =     600.0000  Ry
     scf convergence threshold =      1.0E-09
     mixing beta               =       0.7000
     number of iterations used =            8  plain     mixing
     Exchange-correlation= PBE
                           (   1   4   3   4   0   0   0)

     celldm(1)=   8.007887  celldm(2)=   0.000000  celldm(3)=   0.000000
     celldm(4)=   0.000000  celldm(5)=   0.000000  celldm(6)=   0.000000

     crystal axes: (cart. coord. in units of alat)
               a(1) = (   1.000000   0.000000   0.000000 )
               a(2) = (   0.000000   1.034190   0.000000 )
               a(3) = (   0.000000   0.000000   4.719662 )

     reciprocal axes: (cart. coord. in units 2 pi/alat)
               b(1) = (  1.000000  0.000000  0.000000 )
               b(2) = (  0.000000  0.966940  0.000000 )
               b(3) = (  0.000000  0.000000  0.211880 )

     PseudoPot. # 1 for Ge read from file:
     ../../../pseudo/Ge_ONCV_PBE-1.2.upf
     MD5 check sum: 9f45083245c564cb2163622d60d05ca9
     Pseudo is Norm-conserving, Zval = 14.0
     Generated using ONCVPSP code by D. R. Hamann
     Using radial grid of  602 points,  6 beta functions with:
                l(1) =   0
                l(2) =   0
                l(3) =   1
                l(4) =   1
                l(5) =   2
                l(6) =   2

     PseudoPot. # 2 for Te read from file:
     ../../../pseudo/Te_ONCV_PBE-1.2.upf
     MD5 check sum: dd4de4dac1e38587f63aaf3700bb29d3
     Pseudo is Norm-conserving, Zval = 16.0
     Generated using ONCVPSP code by D. R. Hamann
     Using radial grid of  602 points,  6 beta functions with:
                l(1) =   0
                l(2) =   0
                l(3) =   1
                l(4) =   1
                l(5) =   2
                l(6) =   2

     atomic species   valence    mass     pseudopotential
        Ge            14.00    72.63000     Ge( 1.00)
        Te            16.00   127.60000     Te( 1.00)

      2 Sym. Ops. (no inversion) found

                                    s                        frac. trans.

      isym =  1     identity

 cryst.   s( 1) = (     1          0          0      )
                  (     0          1          0      )
                  (     0          0          1      )

 cart.    s( 1) = (  1.0000000  0.0000000  0.0000000 )
                  (  0.0000000  1.0000000  0.0000000 )
                  (  0.0000000  0.0000000  1.0000000 )

      isym =  2     inv. 180 deg rotation - cart. axis [1,0,0]

 cryst.   s( 2) = (    -1          0          0      )
                  (     0          1          0      )
                  (     0          0          1      )

 cart.    s( 2) = ( -1.0000000  0.0000000  0.0000000 )
                  (  0.0000000  1.0000000  0.0000000 )
                  (  0.0000000  0.0000000  1.0000000 )

   Cartesian axes

     site n.     atom                  positions (alat units)
         1           Ge  tau(   1) = (   0.0000000   0.4852822   1.6614487  )
         2           Ge  tau(   2) = (   0.5000000   1.0023560   1.0938804  )
         3           Te  tau(   3) = (   0.5000000   0.0318432   1.7374834  )
         4           Te  tau(   4) = (   0.0000000   0.5488986   1.0178653  )

   Crystallographic axes

     site n.     atom                  positions (cryst. coord.)
         1           Ge  tau(   1) = (  0.0000000  0.4692389  0.3520270  )
         2           Ge  tau(   2) = (  0.5000000  0.9692184  0.2317709  )
         3           Te  tau(   3) = (  0.5000000  0.0307905  0.3681372  )
         4           Te  tau(   4) = (  0.0000000  0.5307522  0.2156648  )

     number of k points=   324 (tetrahedron method)
                       cart. coord. in units 2pi/alat
        k(    1) = (   0.0138889   0.0134297  -0.1059398), wk =   0.0061728
        k(    2) = (   0.0138889   0.0402892  -0.1059398), wk =   0.0061728
        k(    3) = (   0.0138889   0.0671486  -0.1059398), wk =   0.0061728
        k(    4) = (   0.0138889   0.0940081  -0.1059398), wk =   0.0061728
        k(    5) = (   0.0138889   0.1208675  -0.1059398), wk =   0.0061728
        k(    6) = (   0.0138889   0.1477270  -0.1059398), wk =   0.0061728
        k(    7) = (   0.0138889   0.1745864  -0.1059398), wk =   0.0061728
        k(    8) = (   0.0138889   0.2014459  -0.1059398), wk =   0.0061728
        k(    9) = (   0.0138889   0.2283053  -0.1059398), wk =   0.0061728
        k(   10) = (   0.0138889   0.2551648  -0.1059398), wk =   0.0061728
        k(   11) = (   0.0138889   0.2820243  -0.1059398), wk =   0.0061728
        k(   12) = (   0.0138889   0.3088837  -0.1059398), wk =   0.0061728
        k(   13) = (   0.0138889   0.3357432  -0.1059398), wk =   0.0061728
        k(   14) = (   0.0138889   0.3626026  -0.1059398), wk =   0.0061728
        k(   15) = (   0.0138889   0.3894621  -0.1059398), wk =   0.0061728
        k(   16) = (   0.0138889   0.4163215  -0.1059398), wk =   0.0061728
        k(   17) = (   0.0138889   0.4431810  -0.1059398), wk =   0.0061728
        k(   18) = (   0.0138889   0.4700404  -0.1059398), wk =   0.0061728
        k(   19) = (   0.0416667   0.0134297  -0.1059398), wk =   0.0061728
        k(   20) = (   0.0416667   0.0402892  -0.1059398), wk =   0.0061728
        k(   21) = (   0.0416667   0.0671486  -0.1059398), wk =   0.0061728
        k(   22) = (   0.0416667   0.0940081  -0.1059398), wk =   0.0061728
        k(   23) = (   0.0416667   0.1208675  -0.1059398), wk =   0.0061728
        k(   24) = (   0.0416667   0.1477270  -0.1059398), wk =   0.0061728
        k(   25) = (   0.0416667   0.1745864  -0.1059398), wk =   0.0061728
        k(   26) = (   0.0416667   0.2014459  -0.1059398), wk =   0.0061728
        k(   27) = (   0.0416667   0.2283053  -0.1059398), wk =   0.0061728
        k(   28) = (   0.0416667   0.2551648  -0.1059398), wk =   0.0061728
        k(   29) = (   0.0416667   0.2820243  -0.1059398), wk =   0.0061728
        k(   30) = (   0.0416667   0.3088837  -0.1059398), wk =   0.0061728
        k(   31) = (   0.0416667   0.3357432  -0.1059398), wk =   0.0061728
        k(   32) = (   0.0416667   0.3626026  -0.1059398), wk =   0.0061728
        k(   33) = (   0.0416667   0.3894621  -0.1059398), wk =   0.0061728
        k(   34) = (   0.0416667   0.4163215  -0.1059398), wk =   0.0061728
        k(   35) = (   0.0416667   0.4431810  -0.1059398), wk =   0.0061728
        k(   36) = (   0.0416667   0.4700404  -0.1059398), wk =   0.0061728
        k(   37) = (   0.0694444   0.0134297  -0.1059398), wk =   0.0061728
        k(   38) = (   0.0694444   0.0402892  -0.1059398), wk =   0.0061728
        k(   39) = (   0.0694444   0.0671486  -0.1059398), wk =   0.0061728
        k(   40) = (   0.0694444   0.0940081  -0.1059398), wk =   0.0061728
        k(   41) = (   0.0694444   0.1208675  -0.1059398), wk =   0.0061728
        k(   42) = (   0.0694444   0.1477270  -0.1059398), wk =   0.0061728
        k(   43) = (   0.0694444   0.1745864  -0.1059398), wk =   0.0061728
        k(   44) = (   0.0694444   0.2014459  -0.1059398), wk =   0.0061728
        k(   45) = (   0.0694444   0.2283053  -0.1059398), wk =   0.0061728
        k(   46) = (   0.0694444   0.2551648  -0.1059398), wk =   0.0061728
        k(   47) = (   0.0694444   0.2820243  -0.1059398), wk =   0.0061728
        k(   48) = (   0.0694444   0.3088837  -0.1059398), wk =   0.0061728
        k(   49) = (   0.0694444   0.3357432  -0.1059398), wk =   0.0061728
        k(   50) = (   0.0694444   0.3626026  -0.1059398), wk =   0.0061728
        k(   51) = (   0.0694444   0.3894621  -0.1059398), wk =   0.0061728
        k(   52) = (   0.0694444   0.4163215  -0.1059398), wk =   0.0061728
        k(   53) = (   0.0694444   0.4431810  -0.1059398), wk =   0.0061728
        k(   54) = (   0.0694444   0.4700404  -0.1059398), wk =   0.0061728
        k(   55) = (   0.0972222   0.0134297  -0.1059398), wk =   0.0061728
        k(   56) = (   0.0972222   0.0402892  -0.1059398), wk =   0.0061728
        k(   57) = (   0.0972222   0.0671486  -0.1059398), wk =   0.0061728
        k(   58) = (   0.0972222   0.0940081  -0.1059398), wk =   0.0061728
        k(   59) = (   0.0972222   0.1208675  -0.1059398), wk =   0.0061728
        k(   60) = (   0.0972222   0.1477270  -0.1059398), wk =   0.0061728
[...]
        k(  310) = (   0.4861111   0.0940081  -0.1059398), wk =   0.0061728
        k(  311) = (   0.4861111   0.1208675  -0.1059398), wk =   0.0061728
        k(  312) = (   0.4861111   0.1477270  -0.1059398), wk =   0.0061728
        k(  313) = (   0.4861111   0.1745864  -0.1059398), wk =   0.0061728
        k(  314) = (   0.4861111   0.2014459  -0.1059398), wk =   0.0061728
        k(  315) = (   0.4861111   0.2283053  -0.1059398), wk =   0.0061728
        k(  316) = (   0.4861111   0.2551648  -0.1059398), wk =   0.0061728
        k(  317) = (   0.4861111   0.2820243  -0.1059398), wk =   0.0061728
        k(  318) = (   0.4861111   0.3088837  -0.1059398), wk =   0.0061728
        k(  319) = (   0.4861111   0.3357432  -0.1059398), wk =   0.0061728
        k(  320) = (   0.4861111   0.3626026  -0.1059398), wk =   0.0061728
        k(  321) = (   0.4861111   0.3894621  -0.1059398), wk =   0.0061728
        k(  322) = (   0.4861111   0.4163215  -0.1059398), wk =   0.0061728
        k(  323) = (   0.4861111   0.4431810  -0.1059398), wk =   0.0061728
        k(  324) = (   0.4861111   0.4700404  -0.1059398), wk =   0.0061728

                       cryst. coord.
        k(    1) = (   0.0138889   0.0138889  -0.5000000), wk =   0.0061728
        k(    2) = (   0.0138889   0.0416667  -0.5000000), wk =   0.0061728
        k(    3) = (   0.0138889   0.0694444  -0.5000000), wk =   0.0061728
        k(    4) = (   0.0138889   0.0972222  -0.5000000), wk =   0.0061728
        k(    5) = (   0.0138889   0.1250000  -0.5000000), wk =   0.0061728
        k(    6) = (   0.0138889   0.1527778  -0.5000000), wk =   0.0061728
        k(    7) = (   0.0138889   0.1805556  -0.5000000), wk =   0.0061728
        k(    8) = (   0.0138889   0.2083333  -0.5000000), wk =   0.0061728
        k(    9) = (   0.0138889   0.2361111  -0.5000000), wk =   0.0061728
        k(   10) = (   0.0138889   0.2638889  -0.5000000), wk =   0.0061728
        k(   11) = (   0.0138889   0.2916667  -0.5000000), wk =   0.0061728
        k(   12) = (   0.0138889   0.3194444  -0.5000000), wk =   0.0061728
        k(   13) = (   0.0138889   0.3472222  -0.5000000), wk =   0.0061728
        k(   14) = (   0.0138889   0.3750000  -0.5000000), wk =   0.0061728
        k(   15) = (   0.0138889   0.4027778  -0.5000000), wk =   0.0061728
        k(   16) = (   0.0138889   0.4305556  -0.5000000), wk =   0.0061728
        k(   17) = (   0.0138889   0.4583333  -0.5000000), wk =   0.0061728
        k(   18) = (   0.0138889   0.4861111  -0.5000000), wk =   0.0061728
        k(   19) = (   0.0416667   0.0138889  -0.5000000), wk =   0.0061728
        k(   20) = (   0.0416667   0.0416667  -0.5000000), wk =   0.0061728
        k(   21) = (   0.0416667   0.0694444  -0.5000000), wk =   0.0061728
        k(   22) = (   0.0416667   0.0972222  -0.5000000), wk =   0.0061728
        k(   23) = (   0.0416667   0.1250000  -0.5000000), wk =   0.0061728
        k(   24) = (   0.0416667   0.1527778  -0.5000000), wk =   0.0061728
        k(   25) = (   0.0416667   0.1805556  -0.5000000), wk =   0.0061728
        k(   26) = (   0.0416667   0.2083333  -0.5000000), wk =   0.0061728
        k(   27) = (   0.0416667   0.2361111  -0.5000000), wk =   0.0061728
        k(   28) = (   0.0416667   0.2638889  -0.5000000), wk =   0.0061728
        k(   29) = (   0.0416667   0.2916667  -0.5000000), wk =   0.0061728
        k(   30) = (   0.0416667   0.3194444  -0.5000000), wk =   0.0061728
        k(   31) = (   0.0416667   0.3472222  -0.5000000), wk =   0.0061728
        k(   32) = (   0.0416667   0.3750000  -0.5000000), wk =   0.0061728
        k(   33) = (   0.0416667   0.4027778  -0.5000000), wk =   0.0061728
        k(   34) = (   0.0416667   0.4305556  -0.5000000), wk =   0.0061728
        k(   35) = (   0.0416667   0.4583333  -0.5000000), wk =   0.0061728
        k(   36) = (   0.0416667   0.4861111  -0.5000000), wk =   0.0061728
        k(   37) = (   0.0694444   0.0138889  -0.5000000), wk =   0.0061728
        k(   38) = (   0.0694444   0.0416667  -0.5000000), wk =   0.0061728
        k(   39) = (   0.0694444   0.0694444  -0.5000000), wk =   0.0061728
        k(   40) = (   0.0694444   0.0972222  -0.5000000), wk =   0.0061728
        k(   41) = (   0.0694444   0.1250000  -0.5000000), wk =   0.0061728
        k(   42) = (   0.0694444   0.1527778  -0.5000000), wk =   0.0061728
        k(   43) = (   0.0694444   0.1805556  -0.5000000), wk =   0.0061728
        k(   44) = (   0.0694444   0.2083333  -0.5000000), wk =   0.0061728
        k(   45) = (   0.0694444   0.2361111  -0.5000000), wk =   0.0061728
        k(   46) = (   0.0694444   0.2638889  -0.5000000), wk =   0.0061728
        k(   47) = (   0.0694444   0.2916667  -0.5000000), wk =   0.0061728
        k(   48) = (   0.0694444   0.3194444  -0.5000000), wk =   0.0061728
        k(   49) = (   0.0694444   0.3472222  -0.5000000), wk =   0.0061728
        k(   50) = (   0.0694444   0.3750000  -0.5000000), wk =   0.0061728
        k(   51) = (   0.0694444   0.4027778  -0.5000000), wk =   0.0061728
        k(   52) = (   0.0694444   0.4305556  -0.5000000), wk =   0.0061728
        k(   53) = (   0.0694444   0.4583333  -0.5000000), wk =   0.0061728
        k(   54) = (   0.0694444   0.4861111  -0.5000000), wk =   0.0061728
        k(   55) = (   0.0972222   0.0138889  -0.5000000), wk =   0.0061728
        k(   56) = (   0.0972222   0.0416667  -0.5000000), wk =   0.0061728
        k(   57) = (   0.0972222   0.0694444  -0.5000000), wk =   0.0061728
        k(   58) = (   0.0972222   0.0972222  -0.5000000), wk =   0.0061728
        k(   59) = (   0.0972222   0.1250000  -0.5000000), wk =   0.0061728
        k(   60) = (   0.0972222   0.1527778  -0.5000000), wk =   0.0061728
[...]
        k(  310) = (   0.4861111   0.0972222  -0.5000000), wk =   0.0061728
        k(  311) = (   0.4861111   0.1250000  -0.5000000), wk =   0.0061728
        k(  312) = (   0.4861111   0.1527778  -0.5000000), wk =   0.0061728
        k(  313) = (   0.4861111   0.1805556  -0.5000000), wk =   0.0061728
        k(  314) = (   0.4861111   0.2083333  -0.5000000), wk =   0.0061728
        k(  315) = (   0.4861111   0.2361111  -0.5000000), wk =   0.0061728
        k(  316) = (   0.4861111   0.2638889  -0.5000000), wk =   0.0061728
        k(  317) = (   0.4861111   0.2916667  -0.5000000), wk =   0.0061728
        k(  318) = (   0.4861111   0.3194444  -0.5000000), wk =   0.0061728
        k(  319) = (   0.4861111   0.3472222  -0.5000000), wk =   0.0061728
        k(  320) = (   0.4861111   0.3750000  -0.5000000), wk =   0.0061728
        k(  321) = (   0.4861111   0.4027778  -0.5000000), wk =   0.0061728
        k(  322) = (   0.4861111   0.4305556  -0.5000000), wk =   0.0061728
        k(  323) = (   0.4861111   0.4583333  -0.5000000), wk =   0.0061728
        k(  324) = (   0.4861111   0.4861111  -0.5000000), wk =   0.0061728

     Initial potential from superposition of free atoms

     starting charge   59.81470, renormalised to   60.00000

     negative rho (up, down):  4.789E-04 0.000E+00
     Starting wfcs are random

     Self-consistent Calculation

     iteration #  1     ecut=    50.00 Ry     beta= 0.70
     Davidson diagonalization with overlap
     ethr =  1.00E-02,  avg # of iterations = 10.0

     Threshold (ethr) on eigenvalues was too large:
     Diagonalizing with lowered threshold

     Davidson diagonalization with overlap
     c_bands:  1 eigenvalues not converged
     c_bands:  1 eigenvalues not converged
     c_bands:  1 eigenvalues not converged
     ethr =  5.79E-05,  avg # of iterations = 10.6

     negative rho (up, down):  3.721E-05 0.000E+00

     total energy              =    -632.71464549 Ry
     estimated scf accuracy    <       0.02879222 Ry

[...]

     iteration #  3     ecut=    50.00 Ry     beta= 0.70
     Davidson diagonalization with overlap
     c_bands:  1 eigenvalues not converged
     ethr =  1.75E-05,  avg # of iterations =  7.8

[...]

     iteration #  5     ecut=    50.00 Ry     beta= 0.70
     Davidson diagonalization with overlap
     c_bands:  1 eigenvalues not converged
     c_bands:  1 eigenvalues not converged
     c_bands:  1 eigenvalues not converged
     ethr =  6.64E-07,  avg # of iterations =  5.9

     negative rho (up, down):  1.214E-07 0.000E+00

[...]

     total energy              =    -632.72087911 Ry
     estimated scf accuracy    <          7.8E-09 Ry

     iteration # 10     ecut=    50.00 Ry     beta= 0.70
     Davidson diagonalization with overlap
     ethr =  1.30E-11,  avg # of iterations =  2.3

     End of self-consistent calculation

          k = 0.0139 0.0134-0.1059 ( 14898 PWs)   bands (ev):

   -36.6551 -36.6545 -36.6532 -36.6529 -36.6391 -36.6387 -36.6296 -36.6292
   -36.6254 -36.6246 -24.6688 -24.6622 -24.6585 -24.6578 -24.6504 -24.6464
   -24.6369 -24.6368 -24.6361 -24.6328 -12.5351 -11.1016  -7.0091  -5.7731
    -3.3728  -3.0399  -2.9300  -1.6403  -1.5831  -0.9713   1.5861   2.6932
     3.3217   3.7267   3.7578   4.2422   4.6552   4.7800   5.0383   5.3726
     5.5592   5.8972   7.2440   7.5145   7.8905   8.0816   8.1778   8.5496
     9.2912   9.6488   9.7856  10.0632  10.5550  11.2136  11.3864  11.4477
    11.7995  11.9443  12.0711  12.3168

     occupation numbers
     1.0000   1.0000   1.0000   1.0000   1.0000   1.0000   1.0000   1.0000
     1.0000   1.0000   1.0000   1.0000   1.0000   1.0000   1.0000   1.0000
     1.0000   1.0000   1.0000   1.0000   1.0000   1.0000   1.0000   1.0000
     1.0000   1.0000   1.0000   1.0000   1.0000   1.0000   0.0000   0.0000
     0.0000   0.0000   0.0000   0.0000   0.0000   0.0000   0.0000   0.0000
     0.0000   0.0000   0.0000   0.0000   0.0000   0.0000   0.0000   0.0000
     0.0000   0.0000   0.0000   0.0000   0.0000   0.0000   0.0000   0.0000
     0.0000   0.0000   0.0000   0.0000

[...]

          k = 0.4861 0.4700-0.1059 ( 14952 PWs)   bands (ev):

   -36.6537 -36.6537 -36.6535 -36.6534 -36.6380 -36.6379 -36.6301 -36.6300
   -36.6244 -36.6243 -24.6643 -24.6642 -24.6603 -24.6602 -24.6467 -24.6466
   -24.6391 -24.6391 -24.6326 -24.6325 -10.8145 -10.8092  -7.4691  -7.4638
    -4.7625  -4.7499  -3.4921  -3.4804  -1.8207  -1.8123   2.6815   2.6899
     3.9258   3.9357   5.3127   5.3336   6.6843   6.6877   7.2105   7.2464
     7.6313   7.6690   8.0851   8.1489   8.3437   8.4054   8.5561   8.6121
     9.1304   9.1378   9.5105   9.5962   9.9254   9.9407   9.9818  10.0476
    10.8068  10.8435  11.4911  11.5135

     occupation numbers
     1.0000   1.0000   1.0000   1.0000   1.0000   1.0000   1.0000   1.0000
     1.0000   1.0000   1.0000   1.0000   1.0000   1.0000   1.0000   1.0000
     1.0000   1.0000   1.0000   1.0000   1.0000   1.0000   1.0000   1.0000
     1.0000   1.0000   1.0000   1.0000   1.0000   1.0000   0.0000   0.0000
     0.0000   0.0000   0.0000   0.0000   0.0000   0.0000   0.0000   0.0000
     0.0000   0.0000   0.0000   0.0000   0.0000   0.0000   0.0000   0.0000
     0.0000   0.0000   0.0000   0.0000   0.0000   0.0000   0.0000   0.0000
     0.0000   0.0000   0.0000   0.0000

     the Fermi energy is     0.1269 ev

!    total energy              =    -632.72087911 Ry
     estimated scf accuracy    <          3.8E-10 Ry

     The total energy is the sum of the following terms:
     one-electron contribution =   -2665.03976721 Ry
     hartree contribution      =    1330.29856647 Ry
     xc contribution           =     -71.68931018 Ry
     ewald contribution        =     773.70963180 Ry

     convergence has been achieved in  10 iterations

     Writing output data file ./work/GeTe-mono.save/

     General routines

     Parallel routines

   This run was terminated on:   9:46:36  18Feb2021

   JOB DONE.